param n := 8;

param m := 5;

param duree :		1  2  3  4  5 :=
				1 	54 79 16 66 58 
				2 	83 3 89 58 56 
				3 	15 11 49 31 20 
				4 	71 99 15 68 85 
				5 	77 56 89 78 53 
				6 	36 70 45 91 35 
				7 	53 99 60 13 53 
				8 	38 60 23 59 41;